$molecule
0 1
C	0.00   -0.26   -3.65
C	0.00	0.99   -1.06
C	0.00   -0.99	1.06
C	0.00	0.26	3.65
H  -1.71   -1.45   -3.89
H  -1.71	2.20   -0.89
H   1.71	2.20   -0.89
H	1.71   -2.20	0.89
H  -1.71   -2.20	0.89
H	1.71	1.45	3.89
H	0.00   -1.22	5.15
H  -1.71	1.45	3.89
H	1.71   -1.45   -3.89
H	0.00	1.22   -5.15
$end

$rem
method HF_GPU
basis 6-311G
$end