$molecule
0 1
H 0.0 0.0 0.0
H 1.4 0.0 0.0
$end

$rem
method hf
basis sto-3g
$end