$molecule
0 1
C       1.266     0.000      0.0
C      -1.266    -0.000      0.0
H       2.305     1.800      0.0
H       2.305    -1.800      0.0
H      -2.305     1.800      0.0
H      -2.305    -1.800      0.0
$end


$rem
Method HF
Basis STO-3G
$end